W=4;
H=6;

MAX_TIME=20;
MAX_TRACKS=8;

TARGET=(6,4);

TRAINS=[(3,1,RIGHT),(5,3,TOP),(1,3,DOWN)];
DECOYS=[];

INIT_POS=[
(1,3,STRAIGHT_TD),
(3,1,STRAIGHT_RL),
(3,3,ESWITCH_R_L_D),
(5,3,STRAIGHT_TD),
(6,4,STRAIGHT_RL),
];
TUNNEL_PAIRS=[];

GATES=[];
ACTIVATIONS=[];

DSWITCHES=[];
STATIONS=[];
